NAME : amz2717.84662_81662.tour
COMMENT : Cost = 84662_81662
COMMENT : Found by LKH-AMZ [Keld Helsgaun] Sun May 11 14:08:04 2025
COMMENT : TW viol.: 0 #: 0
TYPE : TOUR
DIMENSION : 119
TOUR_SECTION
14
48
80
17
78
11
74
53
95
24
4
54
110
56
50
37
46
21
20
13
27
59
6
61
75
98
108
2
90
99
114
10
93
118
52
105
101
42
34
32
12
7
36
69
104
83
30
119
51
115
92
81
106
100
22
18
47
79
91
84
113
76
109
62
82
3
96
58
67
44
15
43
41
60
49
86
66
70
38
116
28
85
102
103
68
107
33
23
63
87
64
111
31
94
71
77
57
112
8
5
29
73
117
19
39
9
40
25
45
55
72
89
16
35
1
88
97
65
26
-1
EOF
